c description: tiling of 
c generator: CNFgen (0.9.0)
c copyright: (C) 2012-2020 Massimo Lauria <massimo.lauria@uniroma1.it>
c url: https://massimolauria.net/cnfgen
c
p cnf 10 52
-1 -4 0
-1 -5 0
-1 -7 0
-1 -9 0
-1 -10 0
-4 -5 0
-4 -7 0
-4 -9 0
-4 -10 0
-5 -7 0
-5 -9 0
-5 -10 0
-7 -9 0
-7 -10 0
-9 -10 0
1 4 5 7 9 10 0
-1 -5 0
1 5 0
2 0
-3 -4 0
-3 -5 0
-3 -9 0
-3 -10 0
-4 -5 0
-4 -9 0
-4 -10 0
-5 -9 0
-5 -10 0
-9 -10 0
3 4 5 9 10 0
-3 -8 0
3 8 0
-3 -8 0
-3 -9 0
-8 -9 0
3 8 9 0
-4 -5 0
-4 -7 0
-5 -7 0
4 5 7 0
-4 -5 0
-4 -7 0
-4 -9 0
-5 -7 0
-5 -9 0
-7 -9 0
4 5 7 9 0
-5 -9 0
-5 -10 0
-9 -10 0
5 9 10 0
6 0